
Log started (V11.0.0) Sun Apr 13 12:59:07 2008

Tried aggregator 1 time.
Reduced MIP has 110 rows, 1001 columns, and 2010 nonzeros.
Presolve time =    0.02 sec.
Clique table members: 100.
MIP emphasis: balance optimality and feasibility.
MIP search method: dynamic search.
Parallel mode: none, using 1 thread.
Root relaxation solution time =    0.02 sec.

        Nodes                                         Cuts/
   Node  Left     Objective  IInf  Best Integer     Best Node    ItCnt     Gap

*     0+    0                         5267.0000      110.8821      204   97.89%
*     0+    0                          126.0000      110.8821      204   12.00%
      0     0      111.9812    24      126.0000      Fract: 9      219   11.13%
*     0+    0                          119.0000      111.9812      219    5.90%
      0     0      112.2404    35      119.0000       Cuts: 7      237    5.68%
      0     0      112.3587    42      119.0000       Cuts: 8      250    5.58%
      0     0      112.3802    48      119.0000       Cuts: 4      256    5.56%
      0     0      112.3892    47      119.0000       Cuts: 2      262    5.56%
      0     0      112.4523    43      119.0000       Cuts: 2      271    5.50%
      0     0      112.4813    46      119.0000       Cuts: 5      280    5.48%
      0     0      112.5702    52      119.0000       Cuts: 5      298    5.40%
      0     0      112.5778    46      119.0000       Cuts: 2      304    5.40%
      0     0      112.5926    50      119.0000       Cuts: 4      314    5.38%
      0     0      112.6093    51      119.0000       Cuts: 2      318    5.37%
      0     0      112.6175    58      119.0000       Cuts: 3      328    5.36%
*     0+    0                          118.0000      112.6175      328    4.56%
*     0+    0                          117.0000      112.6175      328    3.75%

Repeating presolve.
Tried aggregator 1 time.
MIP Presolve eliminated 1 rows and 489 columns.
Aggregator did 2 substitutions.
Reduced MIP has 107 rows, 510 columns, and 1028 nonzeros.
Tried aggregator 1 time.
Represolve time =    0.02 sec.
Clique table members: 180.
MIP emphasis: balance optimality and feasibility.
MIP search method: dynamic search.
Parallel mode: none, using 1 thread.
Root relaxation solution time =   -0.00 sec.

        Nodes                                         Cuts/
   Node  Left     Objective  IInf  Best Integer     Best Node    ItCnt     Gap

      0     0      113.0000    36      117.0000      113.0000      128    3.42%
      0     2      113.0000    36      117.0000      113.0000      128    3.42%
    100    65      116.0000    20      117.0000      113.0000     2581    3.42%
    200   134      114.1654    40      117.0000      113.0000     6104    3.42%
    300   201    infeasible            117.0000      113.0000     9880    3.42%
    400   264    infeasible            117.0000      114.0000    13215    2.56%
    500   325      115.0000    14      117.0000      114.0000    19147    2.56%
*   561+  198                          116.0000      114.0000    20999    1.72%
    600   196      115.0000    25      116.0000      114.0000    22630    1.72%
    700   197      115.0000    23      116.0000      114.0000    26760    1.72%
    800   203      115.0000    22      116.0000      114.0000    31461    1.72%
    900   262      115.0000    51      116.0000      114.0000    35969    1.72%
   1000   333      115.0000    13      116.0000      115.0000    40900    0.86%
Elapsed time =   6.94 sec. (tree size =  0.11 MB, solutions = 6)
   1100   381    infeasible            116.0000      115.0000    44989    0.86%
*  1113     0      integral     0      115.0000      115.0000    46044    0.00%

Cover cuts applied:  169
Mixed integer rounding cuts applied:  18
Zero-half cuts applied:  1
Gomory fractional cuts applied:  3

Solution pool: 7 solutions saved.

MIP - Integer optimal solution:  Objective = 1.1500000000e+002
Solution time =    7.50 sec.  Iterations = 46044  Nodes = 1114


Incumbent solution
Variable Name           Solution Value
Cmax                        115.000000
X_1_2                         1.000000
X_2_5                         1.000000
X_3_6                         1.000000
X_4_8                         1.000000
X_5_10                        1.000000
X_6_4                         1.000000
X_7_2                         1.000000
X_8_9                         1.000000
X_9_4                         1.000000
X_10_10                       1.000000
X_11_3                        1.000000
X_12_1                        1.000000
X_13_10                       1.000000
X_14_8                        1.000000
X_15_8                        1.000000
X_16_6                        1.000000
X_17_1                        1.000000
X_18_10                       1.000000
X_19_7                        1.000000
X_20_4                        1.000000
X_21_2                        1.000000
X_22_9                        1.000000
X_23_5                        1.000000
X_24_1                        1.000000
X_25_8                        1.000000
X_26_6                        1.000000
X_27_2                        1.000000
X_28_3                        1.000000
X_29_2                        1.000000
X_30_3                        1.000000
X_31_7                        1.000000
X_32_6                        1.000000
X_33_5                        1.000000
X_34_2                        1.000000
X_35_10                       1.000000
X_36_8                        1.000000
X_37_7                        1.000000
X_38_6                        1.000000
X_39_6                        1.000000
X_40_4                        1.000000
X_41_10                       1.000000
X_42_9                        1.000000
X_43_3                        1.000000
X_44_3                        1.000000
X_45_9                        1.000000
X_46_9                        1.000000
X_47_2                        1.000000
X_48_8                        1.000000
X_49_6                        1.000000
X_50_4                        1.000000
X_51_10                       1.000000
X_52_1                        1.000000
X_53_5                        1.000000
X_54_9                        1.000000
X_55_5                        1.000000
X_56_8                        1.000000
X_57_4                        1.000000
X_58_1                        1.000000
X_59_6                        1.000000
X_60_5                        1.000000
X_61_7                        1.000000
X_62_10                       1.000000
X_63_6                        1.000000
X_64_7                        1.000000
X_65_2                        1.000000
X_66_7                        1.000000
X_67_3                        1.000000
X_68_1                        1.000000
X_69_4                        1.000000
X_70_8                        1.000000
X_71_7                        1.000000
X_72_7                        1.000000
X_73_3                        1.000000
X_74_2                        1.000000
X_75_7                        1.000000
X_76_4                        1.000000
X_77_8                        1.000000
X_78_5                        1.000000
X_79_2                        1.000000
X_80_5                        1.000000
X_81_10                       1.000000
X_82_9                        1.000000
X_83_7                        1.000000
X_84_3                        1.000000
X_85_8                        1.000000
X_86_1                        1.000000
X_87_10                       1.000000
X_88_9                        1.000000
X_89_8                        1.000000
X_90_3                        1.000000
X_91_9                        1.000000
X_92_9                        1.000000
X_93_3                        1.000000
X_94_5                        1.000000
X_95_3                        1.000000
X_96_9                        1.000000
X_97_3                        1.000000
X_98_1                        1.000000
X_99_4                        1.000000
X_100_5                       1.000000
All other variables in the range 1-1001 are 0.
